multiobj/instances/uniform/Ter.8.2.1.00.2.in
8 2
0 231 751 321 933 355 594 368 
231 0 868 904 256 958 115 220 
751 868 0 490 838 809 601 772 
321 904 490 0 130 703 93 59 
933 256 838 130 0 151 709 265 
355 958 809 703 151 0 322 183 
594 115 601 93 709 322 0 408 
368 220 772 59 265 183 408 0 
0 672 656 602 971 148 639 557 
672 0 998 290 74 40 622 589 
656 998 0 773 966 381 73 534 
602 290 773 0 99 342 668 517 
971 74 966 99 0 527 448 839 
148 40 381 342 527 0 760 926 
639 622 73 668 448 760 0 76 
557 589 534 517 839 926 76 0 
0 672 656 602 971 148 639 557 
672 0 998 290 74 40 622 589 
656 998 0 773 966 381 73 534 
602 290 773 0 99 342 668 517 
971 74 966 99 0 527 448 839 
148 40 381 342 527 0 760 926 
639 622 73 668 448 760 0 76 
557 589 534 517 839 926 76 0 
