multiobj/solutions/Ter.8.2.1.00.2.out
1 2
7 1 4 5 3 2 0 6 
10645640 10645640 
